WARNING: for repeatability, setting FPU to use double precision
============================[ Problem Statistics ]=============================
|                                                                             |
|  Number of variables:            50                                         |
|  Number of clauses:             218                                         |
|  Parse time:                   0.00 s                                       |
|                                                                             |
============================[ Search Statistics ]==============================
| Conflicts |          ORIGINAL         |          LEARNT          | Progress |
|           |    Vars  Clauses Literals |    Limit  Clauses Lit/Cl |          |
===============================================================================
===============================================================================
restarts              : 1
conflicts             : 6              (111111 /sec)
decisions             : 21             (0.00 % random) (388889 /sec)
propagations          : 128            (2370370 /sec)
conflict literals     : 34             (2.86 % deleted)
Memory used           : 20.00 MB
CPU time              : 5.4e-05 s

SATISFIABLE
